/*********************************************
 * OPL 12.7.1.0 Data
 * Author: alex and asaf
 * Creation Date: Dec 1, 2017 at 3:50:44 PM
 *********************************************/

nNurses = 7;
nHours = 8;
minHours = 2;
maxHours = 5;
maxConsec = 4;
demand = [1, 2, 3, 2, 4, 3, 2, 4];
maxPresence = 6;